(set-info :smt-lib-version 2.6)
(set-logic UF)
(set-info :source |Benchmarks from the paper: "Extending Sledgehammer with SMT Solvers" by Jasmin Blanchette, Sascha Bohme, and Lawrence C. Paulson, CADE 2011.  Translated to SMT2 by Andrew Reynolds and Morgan Deters.|)
(set-info :category "industrial")
(set-info :status unknown)
(declare-sort S1 0)
(declare-sort S2 0)
(declare-sort S3 0)
(declare-sort S4 0)
(declare-sort S5 0)
(declare-sort S6 0)
(declare-sort S7 0)
(declare-sort S8 0)
(declare-sort S9 0)
(declare-sort S10 0)
(declare-fun f1 () S1)
(declare-fun f2 () S1)
(declare-fun f3 (S2) S1)
(declare-fun f4 (S3 S2) S2)
(declare-fun f5 (S4 S2) S3)
(declare-fun f6 () S4)
(declare-fun f7 () S4)
(declare-fun f8 () S3)
(declare-fun f9 () S3)
(declare-fun f10 () S3)
(declare-fun f11 () S2)
(declare-fun f12 () S2)
(declare-fun f13 () S2)
(declare-fun f14 () S2)
(declare-fun f15 (S5 S6) S2)
(declare-fun f16 (S7 S2) S5)
(declare-fun f17 () S7)
(declare-fun f18 () S2)
(declare-fun f19 () S2)
(declare-fun f20 () S2)
(declare-fun f21 () S2)
(declare-fun f22 (S8 S2) S6)
(declare-fun f23 () S8)
(declare-fun f24 () S4)
(declare-fun f25 (S2) S1)
(declare-fun f26 () S2)
(declare-fun f27 (S9 S6) S6)
(declare-fun f28 (S10 S6) S9)
(declare-fun f29 () S10)
(declare-fun f30 () S6)
(declare-fun f31 () S10)
(declare-fun f32 (S2 S2) S1)
(declare-fun f33 () S2)
(declare-fun f34 () S10)
(declare-fun f35 () S2)
(declare-fun f36 (S2 S2) S1)
(declare-fun f37 () S2)
(declare-fun f38 () S10)
(declare-fun f39 () S4)
(declare-fun f40 () S6)
(declare-fun f41 (S6 S6) S1)
(declare-fun f42 (S2 S2) S1)
(declare-fun f43 (S2 S2 S2) S1)
(declare-fun f44 () S2)
(declare-fun f45 () S6)
(declare-fun f46 () S6)
(declare-fun f47 () S5)
(declare-fun f48 (S2 S2) S1)
(assert (not (= f1 f2)))
(assert (not (= (f3 (f4 (f5 f6 (f4 (f5 f7 (f4 (f5 f6 (f4 f8 (f4 f9 (f4 f9 (f4 f10 f11))))) f12)) f13)) f14)) f1)))
(assert (let ((?v_3 (f4 f9 (f4 f10 f11))) (?v_0 (f5 f6 f18)) (?v_1 (f5 f6 f20))) (let ((?v_2 (f22 f23 ?v_3))) (= (f4 (f5 f7 (f15 (f16 f17 (f4 (f5 f7 (f4 (f5 f7 (f4 ?v_0 f19)) (f4 ?v_1 f21))) f14)) ?v_2)) (f15 (f16 f17 (f4 (f5 f24 (f4 ?v_0 f21)) (f4 ?v_1 f19))) ?v_2)) (f4 (f5 f6 (f4 (f5 f7 (f4 (f5 f6 (f4 f8 (f4 f9 ?v_3))) f12)) f13)) f14)))))
(assert (let ((?v_3 (f4 f9 (f4 f10 f11))) (?v_0 (f5 f6 f18)) (?v_1 (f5 f6 f20))) (let ((?v_2 (f22 f23 ?v_3))) (= (f4 (f5 f7 (f15 (f16 f17 (f4 (f5 f7 (f4 (f5 f7 (f4 ?v_0 f19)) (f4 ?v_1 f21))) f14)) ?v_2)) (f15 (f16 f17 (f4 (f5 f24 (f4 ?v_0 f21)) (f4 ?v_1 f19))) ?v_2)) (f4 (f5 f6 (f4 (f5 f7 (f4 (f5 f6 (f4 f8 (f4 f9 ?v_3))) f12)) f13)) f14)))))
(assert (= (f25 (f4 (f5 f7 (f4 (f5 f6 (f4 f8 (f4 f9 (f4 f9 (f4 f10 f11))))) f12)) f13)) f1))
(assert (forall ((?v0 S2) (?v1 S2)) (=> (= (f3 ?v0) f1) (=> (= (f3 ?v1) f1) (= (f3 (f4 (f5 f6 ?v0) ?v1)) f1)))))
(assert (= (f3 (f4 (f5 f6 (f4 (f5 f7 (f4 (f5 f6 (f4 f8 (f4 f9 (f4 f9 (f4 f10 f11))))) f12)) f13)) f26)) f1))
(assert (forall ((?v0 S2)) (= (f4 (f5 f7 f13) (f4 f8 ?v0)) (f4 f8 (f4 (f5 f7 (f4 f10 f11)) ?v0)))))
(assert (forall ((?v0 S2)) (= (f4 (f5 f7 (f4 f8 ?v0)) f13) (f4 f8 (f4 (f5 f7 ?v0) (f4 f10 f11))))))
(assert (= (f4 (f5 f7 f13) f13) (f4 f8 (f4 f9 (f4 f10 f11)))))
(assert (= (f27 (f28 f29 f30) f30) (f22 f23 (f4 f9 (f4 f10 f11)))))
(assert (= (f4 (f5 f7 f13) f13) (f4 f8 (f4 f9 (f4 f10 f11)))))
(assert (forall ((?v0 S2)) (= (f4 (f5 f6 ?v0) (f4 f8 (f4 f9 (f4 f10 f11)))) (f4 (f5 f7 ?v0) ?v0))))
(assert (forall ((?v0 S6)) (= (f27 (f28 f31 ?v0) (f22 f23 (f4 f9 (f4 f10 f11)))) (f27 (f28 f29 ?v0) ?v0))))
(assert (forall ((?v0 S2)) (= (f4 (f5 f6 ?v0) (f4 f8 (f4 f9 (f4 f10 f11)))) (f4 (f5 f7 ?v0) ?v0))))
(assert (forall ((?v0 S2)) (= (f4 (f5 f6 (f4 f8 (f4 f9 (f4 f10 f11)))) ?v0) (f4 (f5 f7 ?v0) ?v0))))
(assert (forall ((?v0 S6)) (= (f27 (f28 f31 (f22 f23 (f4 f9 (f4 f10 f11)))) ?v0) (f27 (f28 f29 ?v0) ?v0))))
(assert (forall ((?v0 S2)) (= (f4 (f5 f6 (f4 f8 (f4 f9 (f4 f10 f11)))) ?v0) (f4 (f5 f7 ?v0) ?v0))))
(assert (forall ((?v0 S2)) (= (f4 (f5 f6 (f4 (f5 f7 f13) f13)) (f4 f8 ?v0)) (f4 f8 (f4 f9 ?v0)))))
(assert (forall ((?v0 S2) (?v1 S2)) (= (f4 (f5 f6 (f4 f10 ?v0)) ?v1) (f4 (f5 f7 (f4 f9 (f4 (f5 f6 ?v0) ?v1))) ?v1))))
(assert (= f13 (f4 f8 (f4 f10 f11))))
(assert (= (f32 f13 f26) f1))
(assert (let ((?v_0 (f4 f9 (f4 f10 f11)))) (= (f4 (f5 f7 (f15 (f16 f17 f33) (f22 f23 ?v_0))) f13) (f4 (f5 f6 (f4 (f5 f7 (f4 (f5 f6 (f4 f8 (f4 f9 ?v_0))) f12)) f13)) f26))))
(assert (=> (= f26 f13) (exists ((?v0 S2) (?v1 S2)) (let ((?v_1 (f4 f9 (f4 f10 f11)))) (let ((?v_0 (f22 f23 ?v_1))) (= (f4 (f5 f7 (f15 (f16 f17 ?v0) ?v_0)) (f15 (f16 f17 ?v1) ?v_0)) (f4 (f5 f7 (f4 (f5 f6 (f4 f8 (f4 f9 ?v_1))) f12)) f13)))))))
(assert (forall ((?v0 S2) (?v1 S6) (?v2 S6)) (let ((?v_0 (f16 f17 ?v0))) (= (f15 (f16 f17 (f15 ?v_0 ?v1)) ?v2) (f15 ?v_0 (f27 (f28 f31 ?v1) ?v2))))))
(assert (forall ((?v0 S2) (?v1 S6) (?v2 S6)) (let ((?v_0 (f16 f17 ?v0))) (= (f15 ?v_0 (f27 (f28 f29 ?v1) ?v2)) (f4 (f5 f6 (f15 ?v_0 ?v1)) (f15 ?v_0 ?v2))))))
(assert (forall ((?v0 S2) (?v1 S2)) (= (f4 f8 (f4 (f5 f24 ?v0) ?v1)) (f4 (f5 f24 (f4 f8 ?v0)) (f4 f8 ?v1)))))
(assert (forall ((?v0 S2)) (= (f4 (f5 f24 ?v0) f11) ?v0)))
(assert (forall ((?v0 S2) (?v1 S2)) (= (f4 (f5 f24 (f4 f9 ?v0)) (f4 f9 ?v1)) (f4 f9 (f4 (f5 f24 ?v0) ?v1)))))
(assert (forall ((?v0 S2) (?v1 S2) (?v2 S2)) (= (f4 (f5 f6 (f4 (f5 f24 ?v0) ?v1)) ?v2) (f4 (f5 f24 (f4 (f5 f6 ?v0) ?v2)) (f4 (f5 f6 ?v1) ?v2)))))
(assert (forall ((?v0 S2) (?v1 S2) (?v2 S2)) (let ((?v_0 (f5 f6 ?v0))) (= (f4 ?v_0 (f4 (f5 f24 ?v1) ?v2)) (f4 (f5 f24 (f4 ?v_0 ?v1)) (f4 ?v_0 ?v2))))))
(assert (forall ((?v0 S2) (?v1 S2)) (= (= (f4 f8 ?v0) (f4 f8 ?v1)) (= ?v0 ?v1))))
(assert (forall ((?v0 S2) (?v1 S6)) (let ((?v_0 (f22 f23 ?v0))) (= (= ?v_0 ?v1) (= ?v1 ?v_0)))))
(assert (forall ((?v0 S2) (?v1 S2)) (let ((?v_0 (f4 f8 ?v0))) (= (= ?v_0 ?v1) (= ?v1 ?v_0)))))
(assert (forall ((?v0 S2) (?v1 S2)) (= (= (f4 f10 ?v0) (f4 f10 ?v1)) (= ?v0 ?v1))))
(assert (= (= f11 f11) true))
(assert (forall ((?v0 S2) (?v1 S2)) (= (= (f4 f9 ?v0) (f4 f9 ?v1)) (= ?v0 ?v1))))
(assert (forall ((?v0 S2) (?v1 S2) (?v2 S2)) (let ((?v_0 (f4 f8 ?v2))) (= (f4 (f5 f6 (f4 (f5 f24 ?v0) ?v1)) ?v_0) (f4 (f5 f24 (f4 (f5 f6 ?v0) ?v_0)) (f4 (f5 f6 ?v1) ?v_0))))))
(assert (forall ((?v0 S2) (?v1 S2) (?v2 S2)) (let ((?v_0 (f5 f6 (f4 f8 ?v0)))) (= (f4 ?v_0 (f4 (f5 f24 ?v1) ?v2)) (f4 (f5 f24 (f4 ?v_0 ?v1)) (f4 ?v_0 ?v2))))))
(assert (forall ((?v0 S2) (?v1 S2) (?v2 S2)) (let ((?v_0 (f5 f6 ?v0))) (= (f4 (f5 f6 (f4 ?v_0 ?v1)) ?v2) (f4 ?v_0 (f4 (f5 f6 ?v1) ?v2))))))
(assert (forall ((?v0 S2) (?v1 S2)) (= (f4 (f5 f6 ?v0) ?v1) (f4 (f5 f6 ?v1) ?v0))))
(assert (forall ((?v0 S2)) (= (f4 f8 ?v0) ?v0)))
(assert (forall ((?v0 S2) (?v1 S2) (?v2 S2)) (let ((?v_0 (f5 f7 ?v0))) (= (f4 (f5 f7 (f4 ?v_0 ?v1)) ?v2) (f4 ?v_0 (f4 (f5 f7 ?v1) ?v2))))))
(assert (forall ((?v0 S2) (?v1 S2) (?v2 S2)) (let ((?v_1 (f5 f7 ?v0)) (?v_0 (f5 f7 ?v1))) (= (f4 ?v_1 (f4 ?v_0 ?v2)) (f4 ?v_0 (f4 ?v_1 ?v2))))))
(assert (forall ((?v0 S2) (?v1 S2)) (= (f4 (f5 f7 ?v0) ?v1) (f4 (f5 f7 ?v1) ?v0))))
(assert (forall ((?v0 S2) (?v1 S2)) (= (f4 (f5 f24 (f4 f10 ?v0)) (f4 f10 ?v1)) (f4 f9 (f4 (f5 f24 ?v0) ?v1)))))
(assert (forall ((?v0 S2) (?v1 S2)) (= (f4 (f5 f24 (f4 f10 ?v0)) (f4 f9 ?v1)) (f4 f10 (f4 (f5 f24 ?v0) ?v1)))))
(assert (forall ((?v0 S2)) (let ((?v_0 (f5 f24 f11))) (= (f4 ?v_0 (f4 f9 ?v0)) (f4 f9 (f4 ?v_0 ?v0))))))
(assert (forall ((?v0 S2) (?v1 S2) (?v2 S2)) (= (f4 (f5 f7 (f4 f8 ?v0)) (f4 (f5 f24 (f4 f8 ?v1)) ?v2)) (f4 (f5 f24 (f4 f8 (f4 (f5 f7 ?v0) ?v1))) ?v2))))
(assert (forall ((?v0 S2)) (= (= (f4 f10 ?v0) f11) false)))
(assert (forall ((?v0 S2)) (= (= f11 (f4 f10 ?v0)) false)))
(assert (forall ((?v0 S2) (?v1 S2)) (= (= (f4 f10 ?v0) (f4 f9 ?v1)) false)))
(assert (forall ((?v0 S2) (?v1 S2)) (= (= (f4 f9 ?v0) (f4 f10 ?v1)) false)))
(assert (forall ((?v0 S2)) (= (= (f4 f9 ?v0) f11) (= ?v0 f11))))
(assert (forall ((?v0 S2)) (= (= f11 (f4 f9 ?v0)) (= f11 ?v0))))
(assert (= (f4 f9 f11) f11))
(assert (forall ((?v0 S2)) (= (f4 (f5 f6 f11) ?v0) f11)))
(assert (forall ((?v0 S2) (?v1 S2)) (= (f4 (f5 f6 (f4 f9 ?v0)) ?v1) (f4 f9 (f4 (f5 f6 ?v0) ?v1)))))
(assert (forall ((?v0 S2)) (= (f4 (f5 f7 ?v0) f11) ?v0)))
(assert (forall ((?v0 S2)) (= (f4 (f5 f7 f11) ?v0) ?v0)))
(assert (forall ((?v0 S2) (?v1 S2)) (= (f4 (f5 f7 (f4 f9 ?v0)) (f4 f9 ?v1)) (f4 f9 (f4 (f5 f7 ?v0) ?v1)))))
(assert (forall ((?v0 S2)) (= (f4 f9 ?v0) (f4 (f5 f7 ?v0) ?v0))))
(assert (forall ((?v0 S2)) (= (f4 (f5 f6 ?v0) f13) ?v0)))
(assert (forall ((?v0 S2)) (= (f4 (f5 f6 f13) ?v0) ?v0)))
(assert (forall ((?v0 S2) (?v1 S2)) (= (f4 (f5 f6 (f4 f8 ?v0)) (f4 f8 ?v1)) (f4 f8 (f4 (f5 f6 ?v0) ?v1)))))
(assert (forall ((?v0 S2) (?v1 S2) (?v2 S2)) (= (f4 (f5 f6 (f4 (f5 f7 ?v0) ?v1)) ?v2) (f4 (f5 f7 (f4 (f5 f6 ?v0) ?v2)) (f4 (f5 f6 ?v1) ?v2)))))
(assert (forall ((?v0 S2) (?v1 S2) (?v2 S2)) (let ((?v_0 (f5 f6 ?v0))) (= (f4 ?v_0 (f4 (f5 f7 ?v1) ?v2)) (f4 (f5 f7 (f4 ?v_0 ?v1)) (f4 ?v_0 ?v2))))))
(assert (forall ((?v0 S2) (?v1 S2)) (= (f4 (f5 f7 (f4 f8 ?v0)) (f4 f8 ?v1)) (f4 f8 (f4 (f5 f7 ?v0) ?v1)))))
(assert (forall ((?v0 S6) (?v1 S6) (?v2 S2)) (let ((?v_0 (f22 f23 ?v2))) (= (f27 (f28 f31 (f27 (f28 f29 ?v0) ?v1)) ?v_0) (f27 (f28 f29 (f27 (f28 f31 ?v0) ?v_0)) (f27 (f28 f31 ?v1) ?v_0))))))
(assert (forall ((?v0 S2) (?v1 S2) (?v2 S2)) (let ((?v_0 (f4 f8 ?v2))) (= (f4 (f5 f6 (f4 (f5 f7 ?v0) ?v1)) ?v_0) (f4 (f5 f7 (f4 (f5 f6 ?v0) ?v_0)) (f4 (f5 f6 ?v1) ?v_0))))))
(assert (forall ((?v0 S2) (?v1 S6) (?v2 S6)) (let ((?v_0 (f28 f31 (f22 f23 ?v0)))) (= (f27 ?v_0 (f27 (f28 f29 ?v1) ?v2)) (f27 (f28 f29 (f27 ?v_0 ?v1)) (f27 ?v_0 ?v2))))))
(assert (forall ((?v0 S2) (?v1 S2) (?v2 S2)) (let ((?v_0 (f5 f6 (f4 f8 ?v0)))) (= (f4 ?v_0 (f4 (f5 f7 ?v1) ?v2)) (f4 (f5 f7 (f4 ?v_0 ?v1)) (f4 ?v_0 ?v2))))))
(assert (forall ((?v0 S2)) (= (f4 (f5 f7 (f4 f8 f11)) ?v0) ?v0)))
(assert (forall ((?v0 S2)) (= (f4 (f5 f7 ?v0) (f4 f8 f11)) ?v0)))
(assert (forall ((?v0 S2) (?v1 S2) (?v2 S2)) (= (f4 (f5 f6 (f4 f8 ?v0)) (f4 (f5 f6 (f4 f8 ?v1)) ?v2)) (f4 (f5 f6 (f4 f8 (f4 (f5 f6 ?v0) ?v1))) ?v2))))
(assert (forall ((?v0 S2) (?v1 S2)) (= (f4 (f5 f6 (f4 f8 ?v0)) (f4 f8 ?v1)) (f4 f8 (f4 (f5 f6 ?v0) ?v1)))))
(assert (forall ((?v0 S2) (?v1 S2)) (= (f4 f8 (f4 (f5 f6 ?v0) ?v1)) (f4 (f5 f6 (f4 f8 ?v0)) (f4 f8 ?v1)))))
(assert (forall ((?v0 S2) (?v1 S2)) (= (f4 f8 (f4 (f5 f7 ?v0) ?v1)) (f4 (f5 f7 (f4 f8 ?v0)) (f4 f8 ?v1)))))
(assert (forall ((?v0 S2) (?v1 S2) (?v2 S2)) (= (f4 (f5 f7 (f4 f8 ?v0)) (f4 (f5 f7 (f4 f8 ?v1)) ?v2)) (f4 (f5 f7 (f4 f8 (f4 (f5 f7 ?v0) ?v1))) ?v2))))
(assert (forall ((?v0 S2) (?v1 S2)) (= (f4 (f5 f7 (f4 f8 ?v0)) (f4 f8 ?v1)) (f4 f8 (f4 (f5 f7 ?v0) ?v1)))))
(assert (forall ((?v0 S2) (?v1 S2)) (= (f4 (f5 f7 (f4 f10 ?v0)) (f4 f9 ?v1)) (f4 f10 (f4 (f5 f7 ?v0) ?v1)))))
(assert (forall ((?v0 S2) (?v1 S2)) (= (f4 (f5 f7 (f4 f9 ?v0)) (f4 f10 ?v1)) (f4 f10 (f4 (f5 f7 ?v0) ?v1)))))
(assert (forall ((?v0 S2)) (= (f4 f10 ?v0) (f4 (f5 f7 (f4 (f5 f7 f13) ?v0)) ?v0))))
(assert (forall ((?v0 S2)) (let ((?v_0 (f4 f8 ?v0))) (= (f4 f8 (f4 f10 ?v0)) (f4 (f5 f7 (f4 (f5 f7 f13) ?v_0)) ?v_0)))))
(assert (forall ((?v0 S2)) (= (f4 (f5 f6 (f4 f8 (f4 f10 f11))) ?v0) ?v0)))
(assert (forall ((?v0 S2)) (= (f4 (f5 f6 ?v0) (f4 f8 (f4 f10 f11))) ?v0)))
(assert (= (f22 f23 (f4 f10 f11)) f30))
(assert (= (f4 f8 (f4 f10 f11)) f13))
(assert (= (f4 f8 (f4 f10 f11)) f13))
(assert (forall ((?v0 S2) (?v1 S2)) (let ((?v_3 (f4 f10 f11))) (let ((?v_5 (f22 f23 (f4 f9 ?v_3))) (?v_1 (f4 f10 ?v_3))) (let ((?v_0 (f22 f23 ?v_1)) (?v_2 (f16 f17 ?v0)) (?v_4 (f5 f6 (f4 f8 ?v_1))) (?v_6 (f16 f17 ?v1))) (= (f15 (f16 f17 (f4 (f5 f24 ?v0) ?v1)) ?v_0) (f4 (f5 f24 (f4 (f5 f7 (f4 (f5 f24 (f15 ?v_2 ?v_0)) (f4 (f5 f6 (f4 ?v_4 (f15 ?v_2 ?v_5))) ?v1))) (f4 (f5 f6 (f4 ?v_4 ?v0)) (f15 ?v_6 ?v_5)))) (f15 ?v_6 ?v_0))))))))
(assert (forall ((?v0 S2) (?v1 S2)) (let ((?v_1 (f4 f9 (f4 f10 f11)))) (let ((?v_0 (f22 f23 ?v_1))) (= (f15 (f16 f17 (f4 (f5 f24 ?v0) ?v1)) ?v_0) (f4 (f5 f7 (f4 (f5 f24 (f15 (f16 f17 ?v0) ?v_0)) (f4 (f5 f6 (f4 (f5 f6 (f4 f8 ?v_1)) ?v0)) ?v1))) (f15 (f16 f17 ?v1) ?v_0)))))))
(assert (forall ((?v0 S2) (?v1 S2)) (let ((?v_1 (f4 f9 (f4 f10 f11)))) (let ((?v_0 (f22 f23 ?v_1))) (= (f15 (f16 f17 (f4 (f5 f24 ?v0) ?v1)) ?v_0) (f4 (f5 f24 (f4 (f5 f7 (f15 (f16 f17 ?v0) ?v_0)) (f15 (f16 f17 ?v1) ?v_0))) (f4 (f5 f6 (f4 (f5 f6 (f4 f8 ?v_1)) ?v0)) ?v1)))))))
(assert (= (f32 f26 (f4 (f5 f7 (f4 (f5 f6 (f4 f8 (f4 f9 (f4 f9 (f4 f10 f11))))) f12)) f13)) f1))
(assert (forall ((?v0 S2) (?v1 S2)) (let ((?v_0 (f22 f23 (f4 f9 (f4 f10 f11))))) (= (f4 (f5 f6 (f4 (f5 f7 ?v0) ?v1)) (f4 (f5 f24 ?v0) ?v1)) (f4 (f5 f24 (f15 (f16 f17 ?v0) ?v_0)) (f15 (f16 f17 ?v1) ?v_0))))))
(assert (forall ((?v0 S2) (?v1 S2)) (let ((?v_3 (f4 f10 f11))) (let ((?v_5 (f22 f23 (f4 f9 ?v_3))) (?v_1 (f4 f10 ?v_3))) (let ((?v_0 (f22 f23 ?v_1)) (?v_4 (f5 f6 (f4 f8 ?v_1))) (?v_2 (f16 f17 ?v0)) (?v_6 (f16 f17 ?v1))) (= (f15 (f16 f17 (f4 (f5 f7 ?v0) ?v1)) ?v_0) (f4 (f5 f7 (f4 (f5 f7 (f4 (f5 f7 (f15 ?v_2 ?v_0)) (f4 (f5 f6 (f4 ?v_4 (f15 ?v_2 ?v_5))) ?v1))) (f4 (f5 f6 (f4 ?v_4 ?v0)) (f15 ?v_6 ?v_5)))) (f15 ?v_6 ?v_0))))))))
(assert (forall ((?v0 S2) (?v1 S2)) (let ((?v_1 (f4 f9 (f4 f10 f11)))) (let ((?v_0 (f22 f23 ?v_1))) (= (f15 (f16 f17 (f4 (f5 f7 ?v0) ?v1)) ?v_0) (f4 (f5 f7 (f4 (f5 f7 (f15 (f16 f17 ?v0) ?v_0)) (f4 (f5 f6 (f4 (f5 f6 (f4 f8 ?v_1)) ?v0)) ?v1))) (f15 (f16 f17 ?v1) ?v_0)))))))
(assert (forall ((?v0 S6) (?v1 S6)) (let ((?v_0 (f22 f23 (f4 f9 (f4 f10 f11))))) (= (f27 (f28 f34 (f27 (f28 f29 ?v0) ?v1)) ?v_0) (f27 (f28 f29 (f27 (f28 f29 (f27 (f28 f34 ?v0) ?v_0)) (f27 (f28 f34 ?v1) ?v_0))) (f27 (f28 f31 (f27 (f28 f31 ?v_0) ?v0)) ?v1))))))
(assert (forall ((?v0 S2) (?v1 S2)) (let ((?v_1 (f4 f9 (f4 f10 f11)))) (let ((?v_0 (f22 f23 ?v_1))) (= (f15 (f16 f17 (f4 (f5 f7 ?v0) ?v1)) ?v_0) (f4 (f5 f7 (f4 (f5 f7 (f15 (f16 f17 ?v0) ?v_0)) (f15 (f16 f17 ?v1) ?v_0))) (f4 (f5 f6 (f4 (f5 f6 (f4 f8 ?v_1)) ?v0)) ?v1)))))))
(assert (forall ((?v0 S2)) (let ((?v_0 (f22 f23 ?v0))) (= (f27 (f28 f34 ?v_0) (f22 f23 (f4 f9 (f4 f10 f11)))) (f27 (f28 f31 ?v_0) ?v_0)))))
(assert (forall ((?v0 S2)) (let ((?v_0 (f4 f8 ?v0))) (= (f15 (f16 f17 ?v_0) (f22 f23 (f4 f9 (f4 f10 f11)))) (f4 (f5 f6 ?v_0) ?v_0)))))
(assert (forall ((?v0 S2)) (let ((?v_1 (f4 f10 f11)) (?v_0 (f16 f17 ?v0))) (= (f4 (f5 f6 ?v0) (f15 ?v_0 (f22 f23 (f4 f9 ?v_1)))) (f15 ?v_0 (f22 f23 (f4 f10 ?v_1)))))))
(assert (=> (forall ((?v0 S2)) (let ((?v_0 (f4 f9 (f4 f10 f11)))) (=> (= (f4 (f5 f7 (f15 (f16 f17 f33) (f22 f23 ?v_0))) f13) (f4 (f5 f6 (f4 (f5 f7 (f4 (f5 f6 (f4 f8 (f4 f9 ?v_0))) f12)) f13)) ?v0)) false))) false))
(assert (forall ((?v0 S2) (?v1 S2)) (or (= (f32 ?v0 ?v1) f1) (or (= ?v0 ?v1) (= (f32 ?v1 ?v0) f1)))))
(assert (forall ((?v0 S2) (?v1 S2)) (= (= (f32 (f4 f8 ?v0) (f4 f8 ?v1)) f1) (= (f32 ?v0 ?v1) f1))))
(assert (forall ((?v0 S2) (?v1 S2)) (= (= (f32 (f4 f10 ?v0) (f4 f10 ?v1)) f1) (= (f32 ?v0 ?v1) f1))))
(assert (forall ((?v0 S2) (?v1 S2)) (= (= (f32 (f4 f10 ?v0) (f4 f10 ?v1)) f1) (= (f32 ?v0 ?v1) f1))))
(assert (= (= (f32 f11 f11) f1) false))
(assert (forall ((?v0 S2) (?v1 S2)) (= (= (f32 (f4 f9 ?v0) (f4 f9 ?v1)) f1) (= (f32 ?v0 ?v1) f1))))
(assert (forall ((?v0 S2) (?v1 S2)) (= (= (f32 (f4 f9 ?v0) (f4 f9 ?v1)) f1) (= (f32 ?v0 ?v1) f1))))
(assert (forall ((?v0 S2) (?v1 S2)) (= (= (f32 (f4 f8 ?v0) (f4 f8 ?v1)) f1) (= (f32 ?v0 ?v1) f1))))
(assert (forall ((?v0 S2) (?v1 S2) (?v2 S2)) (=> (= (f32 ?v0 ?v1) f1) (= (f32 (f4 (f5 f7 ?v0) ?v2) (f4 (f5 f7 ?v1) ?v2)) f1))))
(assert (forall ((?v0 S2)) (= (= (f32 f13 (f4 f8 ?v0)) f1) (= (f32 (f4 f10 f11) ?v0) f1))))
(assert (forall ((?v0 S2)) (= (= (f32 (f4 f8 ?v0) f13) f1) (= (f32 ?v0 (f4 f10 f11)) f1))))
(assert (forall ((?v0 S2) (?v1 S2)) (let ((?v_1 (f22 f23 ?v0)) (?v_0 (f22 f23 ?v1))) (= (f27 (f28 f29 ?v_1) ?v_0) (ite (= (f32 ?v0 f11) f1) ?v_0 (ite (= (f32 ?v1 f11) f1) ?v_1 (f22 f23 (f4 (f5 f7 ?v0) ?v1))))))))
(assert (forall ((?v0 S2)) (= (= (f32 (f4 f10 ?v0) f11) f1) (= (f32 ?v0 f11) f1))))
(assert (forall ((?v0 S2) (?v1 S2)) (= (= (f32 (f4 f10 ?v0) (f4 f9 ?v1)) f1) (= (f32 ?v0 ?v1) f1))))
(assert (forall ((?v0 S2) (?v1 S2)) (= (= (f32 (f4 f10 ?v0) (f4 f9 ?v1)) f1) (= (f32 ?v0 ?v1) f1))))
(assert (forall ((?v0 S2)) (= (= (f32 f11 (f4 f9 ?v0)) f1) (= (f32 f11 ?v0) f1))))
(assert (forall ((?v0 S2)) (= (= (f32 (f4 f9 ?v0) f11) f1) (= (f32 ?v0 f11) f1))))
(assert (forall ((?v0 S2) (?v1 S2)) (= (= (f32 ?v0 (f4 (f5 f7 ?v1) f13)) f1) (or (= (f32 ?v0 ?v1) f1) (= ?v0 ?v1)))))
(assert (= f30 (f22 f23 (f4 f10 f11))))
(assert (= (f22 f23 (f4 f10 f11)) f30))
(assert (= f13 (f4 f8 (f4 f10 f11))))
(assert (= (f27 (f28 f29 f30) f30) (f22 f23 (f4 f9 (f4 f10 f11)))))
(assert (forall ((?v0 S6)) (= (f27 (f28 f31 ?v0) (f22 f23 (f4 f9 (f4 f10 f11)))) (f27 (f28 f29 ?v0) ?v0))))
(assert (forall ((?v0 S6)) (= (f27 (f28 f31 (f22 f23 (f4 f9 (f4 f10 f11)))) ?v0) (f27 (f28 f29 ?v0) ?v0))))
(assert (forall ((?v0 S6)) (= (f27 (f28 f34 ?v0) (f22 f23 (f4 f10 (f4 f10 f11)))) (f27 (f28 f31 (f27 (f28 f31 ?v0) ?v0)) ?v0))))
(assert (forall ((?v0 S2)) (= (f15 (f16 f17 ?v0) (f22 f23 (f4 f10 (f4 f10 f11)))) (f4 (f5 f6 (f4 (f5 f6 ?v0) ?v0)) ?v0))))
(assert (forall ((?v0 S6) (?v1 S6)) (let ((?v_1 (f22 f23 (f4 f9 (f4 f10 f11)))) (?v_0 (f28 f34 ?v0))) (= (f27 ?v_0 (f27 (f28 f31 ?v_1) ?v1)) (f27 (f28 f34 (f27 ?v_0 ?v1)) ?v_1)))))
(assert (forall ((?v0 S2) (?v1 S6)) (let ((?v_1 (f22 f23 (f4 f9 (f4 f10 f11)))) (?v_0 (f16 f17 ?v0))) (= (f15 ?v_0 (f27 (f28 f31 ?v_1) ?v1)) (f15 (f16 f17 (f15 ?v_0 ?v1)) ?v_1)))))
(assert (forall ((?v0 S2)) (let ((?v_2 (f4 f9 (f4 f10 f11)))) (let ((?v_0 (f22 f23 ?v_2)) (?v_1 (f16 f17 ?v0))) (= (f15 (f16 f17 (f15 ?v_1 ?v_0)) ?v_0) (f15 ?v_1 (f22 f23 (f4 f9 ?v_2))))))))
(assert (= (f25 (f4 f8 (f4 f9 (f4 f10 f11)))) f1))
(assert (forall ((?v0 S6)) (= (f27 (f28 f34 ?v0) (f22 f23 (f4 f9 (f4 f10 f11)))) (f27 (f28 f31 ?v0) ?v0))))
(assert (forall ((?v0 S2)) (= (f15 (f16 f17 ?v0) (f22 f23 (f4 f9 (f4 f10 f11)))) (f4 (f5 f6 ?v0) ?v0))))
(assert (= (f27 (f28 f34 f30) (f22 f23 (f4 f9 (f4 f10 f11)))) f30))
(assert (= (f15 (f16 f17 f13) (f22 f23 (f4 f9 (f4 f10 f11)))) f13))
(assert (= (f32 f35 (f4 (f5 f7 (f4 (f5 f6 (f4 f8 (f4 f9 (f4 f9 (f4 f10 f11))))) f12)) f13)) f1))
(assert (let ((?v_0 (f4 f9 (f4 f10 f11)))) (= (f36 (f4 (f5 f7 (f4 (f5 f6 (f4 f8 (f4 f9 ?v_0))) f12)) f13) (f4 (f5 f7 (f15 (f16 f17 f33) (f22 f23 ?v_0))) f13)) f1)))
(assert (let ((?v_0 (f15 (f16 f17 f33) (f22 f23 (f4 f9 (f4 f10 f11)))))) (= (f4 (f5 f24 ?v_0) (f4 f8 f37)) (f4 (f5 f7 ?v_0) f13))))
(assert (forall ((?v0 S6) (?v1 S6)) (let ((?v_0 (f28 f34 ?v0))) (let ((?v_1 (f27 ?v_0 ?v1))) (= (f27 ?v_0 (f27 (f28 f31 (f22 f23 (f4 f9 (f4 f10 f11)))) ?v1)) (f27 (f28 f31 ?v_1) ?v_1))))))
(assert (forall ((?v0 S2) (?v1 S6)) (let ((?v_0 (f16 f17 ?v0))) (let ((?v_1 (f15 ?v_0 ?v1))) (= (f15 ?v_0 (f27 (f28 f31 (f22 f23 (f4 f9 (f4 f10 f11)))) ?v1)) (f4 (f5 f6 ?v_1) ?v_1))))))
(assert (forall ((?v0 S6) (?v1 S6)) (let ((?v_0 (f22 f23 (f4 f9 (f4 f10 f11))))) (= (f27 (f28 f38 (f27 (f28 f34 ?v0) ?v_0)) (f27 (f28 f34 ?v1) ?v_0)) (f27 (f28 f31 (f27 (f28 f29 ?v0) ?v1)) (f27 (f28 f38 ?v0) ?v1))))))
(assert (let ((?v_0 (f4 f9 (f4 f10 f11)))) (= (f36 (f4 (f5 f7 (f4 (f5 f6 (f4 f8 (f4 f9 ?v_0))) f12)) f13) (f4 (f5 f24 (f15 (f16 f17 f33) (f22 f23 ?v_0))) (f4 f8 f37))) f1)))
(assert (= (f4 (f5 f39 (f4 f8 f37)) (f4 (f5 f7 (f4 (f5 f6 (f4 f8 (f4 f9 (f4 f9 (f4 f10 f11))))) f12)) f13)) f13))
(assert (= (= (f32 f37 f35) f1) true))
(assert (forall ((?v0 S2) (?v1 S2)) (=> (= (f32 f35 ?v0) f1) (=> (= (f32 ?v0 ?v1) f1) (not (= (f36 ?v1 ?v0) f1))))))
(assert (forall ((?v0 S2) (?v1 S2) (?v2 S2)) (let ((?v_0 (f5 f6 ?v0))) (=> (= (f36 (f4 ?v_0 ?v1) (f4 ?v_0 ?v2)) f1) (=> (not (= ?v0 f35)) (= (f36 ?v1 ?v2) f1))))))
(assert (forall ((?v0 S6)) (= (f27 (f28 f31 f40) ?v0) f40)))
(assert (forall ((?v0 S2)) (= (f4 (f5 f6 f35) ?v0) f35)))
(assert (forall ((?v0 S6)) (= (f27 (f28 f31 ?v0) f40) f40)))
(assert (forall ((?v0 S2)) (= (f4 (f5 f6 ?v0) f35) f35)))
(assert (forall ((?v0 S6)) (= (f27 (f28 f29 f40) ?v0) ?v0)))
(assert (forall ((?v0 S2)) (= (f4 (f5 f7 f35) ?v0) ?v0)))
(assert (forall ((?v0 S6)) (= (f27 (f28 f29 ?v0) f40) ?v0)))
(assert (forall ((?v0 S2)) (= (f4 (f5 f7 ?v0) f35) ?v0)))
(assert (forall ((?v0 S6) (?v1 S6)) (= (= ?v0 (f27 (f28 f29 ?v0) ?v1)) (= ?v1 f40))))
(assert (forall ((?v0 S2) (?v1 S2)) (= (= ?v0 (f4 (f5 f7 ?v0) ?v1)) (= ?v1 f35))))
(assert (= (= f37 f37) true))
(assert (forall ((?v0 S2)) (= (= (f4 f10 ?v0) f37) (= ?v0 f37))))
(assert (forall ((?v0 S2)) (= (= f37 (f4 f10 ?v0)) (= f37 ?v0))))
(assert (= (f4 f10 f37) f37))
(assert (= (= f11 f37) false))
(assert (= (= f37 f11) false))
(assert (forall ((?v0 S2)) (= (= (f4 f9 ?v0) f37) false)))
(assert (forall ((?v0 S2)) (= (= f37 (f4 f9 ?v0)) false)))
(assert (forall ((?v0 S2) (?v1 S2) (?v2 S2)) (=> (= (f36 ?v0 (f4 (f5 f24 ?v1) ?v2)) f1) (=> (= (f36 ?v0 ?v2) f1) (= (f36 ?v0 ?v1) f1)))))
(assert (= (= (f32 f37 f37) f1) false))
(assert (forall ((?v0 S2)) (= (= (f4 (f5 f7 ?v0) ?v0) f35) (= ?v0 f35))))
(assert (= f11 f35))
(assert (not (= f35 f13)))
(assert (forall ((?v0 S2)) (= (f4 (f5 f7 ?v0) f35) ?v0)))
(assert (forall ((?v0 S2)) (= (f4 (f5 f7 f35) ?v0) ?v0)))
(assert (forall ((?v0 S6) (?v1 S6) (?v2 S6) (?v3 S6) (?v4 S6)) (let ((?v_0 (f28 f31 ?v0))) (=> (not (= ?v0 f40)) (=> (and (= ?v1 ?v2) (not (= ?v3 ?v4))) (not (= (f27 (f28 f29 ?v1) (f27 ?v_0 ?v3)) (f27 (f28 f29 ?v2) (f27 ?v_0 ?v4)))))))))
(assert (forall ((?v0 S2) (?v1 S2) (?v2 S2) (?v3 S2) (?v4 S2)) (let ((?v_0 (f5 f6 ?v0))) (=> (not (= ?v0 f35)) (=> (and (= ?v1 ?v2) (not (= ?v3 ?v4))) (not (= (f4 (f5 f7 ?v1) (f4 ?v_0 ?v3)) (f4 (f5 f7 ?v2) (f4 ?v_0 ?v4)))))))))
(assert (forall ((?v0 S2) (?v1 S2) (?v2 S2) (?v3 S2) (?v4 S2)) (let ((?v_0 (f5 f7 ?v2))) (=> (= (f36 ?v0 ?v1) f1) (= (= (f36 ?v0 (f4 ?v_0 ?v3)) f1) (= (f36 ?v0 (f4 (f5 f7 (f4 ?v_0 (f4 (f5 f6 ?v4) ?v1))) ?v3)) f1))))))
(assert (forall ((?v0 S2) (?v1 S2) (?v2 S2)) (= (= (f36 ?v0 (f4 (f5 f7 ?v1) (f4 (f5 f6 ?v0) ?v2))) f1) (= (f36 ?v0 ?v1) f1))))
(assert (forall ((?v0 S2)) (= (= (f32 f37 (f4 f10 ?v0)) f1) (= (f32 f37 ?v0) f1))))
(assert (forall ((?v0 S2)) (= (= (f32 (f4 f10 ?v0) f37) f1) (= (f32 ?v0 f37) f1))))
(assert (= (= (f32 f37 f11) f1) true))
(assert (= (= (f32 f11 f37) f1) false))
(assert (forall ((?v0 S2)) (= (= (f32 f37 (f4 f9 ?v0)) f1) (= (f32 f37 ?v0) f1))))
(assert (not (= (f4 f8 f11) (f4 f8 f37))))
(assert (forall ((?v0 S2)) (= (= (f32 (f4 (f5 f7 ?v0) ?v0) f35) f1) (= (f32 ?v0 f35) f1))))
(assert (forall ((?v0 S2) (?v1 S2)) (= (= (f4 (f5 f7 (f4 (f5 f6 ?v0) ?v0)) (f4 (f5 f6 ?v1) ?v1)) f35) (and (= ?v0 f35) (= ?v1 f35)))))
(assert (forall ((?v0 S2) (?v1 S2) (?v2 S6)) (=> (= (f25 ?v0) f1) (=> (= (f36 ?v0 (f15 (f16 f17 ?v1) ?v2)) f1) (= (f36 ?v0 ?v1) f1)))))
(assert (= (f22 f23 f11) f40))
(assert (= (f4 f8 f11) f35))
(assert (= (f4 f8 f11) f35))
(assert (= f35 (f4 f8 f11)))
(assert (forall ((?v0 S2)) (= (= (f32 (f4 f10 ?v0) f35) f1) (= (f32 ?v0 f35) f1))))
(assert (= (= (f32 f11 f35) f1) false))
(assert (forall ((?v0 S2)) (= (= (f32 (f4 f9 ?v0) f35) f1) (= (f32 ?v0 f35) f1))))
(assert (= f35 (f4 f8 f11)))
(assert (= (f32 f35 f13) f1))
(assert (forall ((?v0 S2) (?v1 S2) (?v2 S2)) (let ((?v_0 (f5 f6 ?v2))) (=> (= (f32 ?v0 ?v1) f1) (=> (= (f32 f35 ?v2) f1) (= (f32 (f4 ?v_0 ?v0) (f4 ?v_0 ?v1)) f1))))))
(assert (forall ((?v0 S2) (?v1 S2)) (=> (= (f32 f35 ?v0) f1) (=> (= (f32 f35 (f4 (f5 f6 ?v0) ?v1)) f1) (= (f32 f35 ?v1) f1)))))
(assert (forall ((?v0 S2)) (not (= (f4 (f5 f7 (f4 (f5 f7 f13) ?v0)) ?v0) f35))))
(assert (forall ((?v0 S2) (?v1 S2)) (= (= (f32 ?v0 ?v1) f1) (= (f32 (f4 (f5 f24 ?v0) ?v1) f35) f1))))
(assert (forall ((?v0 S2)) (= (f4 (f5 f24 f11) (f4 f10 ?v0)) (f4 f10 (f4 (f5 f24 f37) ?v0)))))
(assert (forall ((?v0 S2)) (let ((?v_0 (f5 f24 f37))) (= (f4 ?v_0 (f4 f10 ?v0)) (f4 f9 (f4 ?v_0 ?v0))))))
(assert (forall ((?v0 S2)) (let ((?v_0 (f5 f24 f37))) (= (f4 ?v_0 (f4 f9 ?v0)) (f4 f10 (f4 ?v_0 ?v0))))))
(assert (forall ((?v0 S2) (?v1 S2)) (=> (= (f4 (f5 f6 ?v0) ?v1) f13) (or (= ?v0 f13) (= ?v0 (f4 f8 f37))))))
(assert (forall ((?v0 S2) (?v1 S2)) (let ((?v_0 (f4 f8 f37))) (= (= (f4 (f5 f6 ?v0) ?v1) f13) (or (and (= ?v0 f13) (= ?v1 f13)) (and (= ?v0 ?v_0) (= ?v1 ?v_0)))))))
(assert (forall ((?v0 S2) (?v1 S2) (?v2 S6) (?v3 S2)) (let ((?v_0 (f15 (f16 f17 ?v0) ?v2))) (=> (= (f25 ?v0) f1) (=> (not (= (f36 ?v0 ?v1) f1)) (=> (= (f36 ?v_0 (f4 (f5 f6 ?v1) ?v3)) f1) (= (f36 ?v_0 ?v3) f1)))))))
(assert (forall ((?v0 S2) (?v1 S2) (?v2 S6) (?v3 S2)) (let ((?v_0 (f15 (f16 f17 ?v0) ?v2))) (=> (= (f25 ?v0) f1) (=> (not (= (f36 ?v0 ?v1) f1)) (=> (= (f36 ?v_0 (f4 (f5 f6 ?v3) ?v1)) f1) (= (f36 ?v_0 ?v3) f1)))))))
(assert (forall ((?v0 S2) (?v1 S2)) (= (= (f41 (f22 f23 ?v0) (f22 f23 ?v1)) f1) (ite (= (f32 ?v0 ?v1) f1) (= (f32 f11 ?v1) f1) false))))
(assert (forall ((?v0 S2) (?v1 S2)) (= (= (f32 f35 (f4 (f5 f7 (f4 (f5 f6 ?v0) ?v0)) (f4 (f5 f6 ?v1) ?v1))) f1) (or (not (= ?v0 f35)) (not (= ?v1 f35))))))
(assert (forall ((?v0 S2) (?v1 S2)) (not (= (f32 (f4 (f5 f7 (f4 (f5 f6 ?v0) ?v0)) (f4 (f5 f6 ?v1) ?v1)) f35) f1))))
(assert (forall ((?v0 S2)) (let ((?v_0 (f4 f8 ?v0))) (= (f4 f8 (f4 f9 ?v0)) (f4 (f5 f7 (f4 (f5 f7 f35) ?v_0)) ?v_0)))))
(assert (forall ((?v0 S6) (?v1 S6) (?v2 S6) (?v3 S6)) (let ((?v_0 (f28 f31 ?v0))) (= (f27 (f28 f31 (f27 ?v_0 ?v1)) (f27 (f28 f31 ?v2) ?v3)) (f27 (f28 f31 (f27 ?v_0 ?v2)) (f27 (f28 f31 ?v1) ?v3))))))
(assert (forall ((?v0 S2) (?v1 S2) (?v2 S2) (?v3 S2)) (let ((?v_0 (f5 f6 ?v0))) (= (f4 (f5 f6 (f4 ?v_0 ?v1)) (f4 (f5 f6 ?v2) ?v3)) (f4 (f5 f6 (f4 ?v_0 ?v2)) (f4 (f5 f6 ?v1) ?v3))))))
(assert (forall ((?v0 S6) (?v1 S6) (?v2 S6) (?v3 S6)) (let ((?v_1 (f28 f31 (f27 (f28 f31 ?v0) ?v1))) (?v_0 (f28 f31 ?v2))) (= (f27 ?v_1 (f27 ?v_0 ?v3)) (f27 ?v_0 (f27 ?v_1 ?v3))))))
(assert (forall ((?v0 S2) (?v1 S2) (?v2 S2) (?v3 S2)) (let ((?v_1 (f5 f6 (f4 (f5 f6 ?v0) ?v1))) (?v_0 (f5 f6 ?v2))) (= (f4 ?v_1 (f4 ?v_0 ?v3)) (f4 ?v_0 (f4 ?v_1 ?v3))))))
(assert (forall ((?v0 S6) (?v1 S6) (?v2 S6) (?v3 S6)) (let ((?v_0 (f28 f31 ?v0)) (?v_1 (f27 (f28 f31 ?v2) ?v3))) (= (f27 (f28 f31 (f27 ?v_0 ?v1)) ?v_1) (f27 ?v_0 (f27 (f28 f31 ?v1) ?v_1))))))
(assert (forall ((?v0 S2) (?v1 S2) (?v2 S2) (?v3 S2)) (let ((?v_0 (f5 f6 ?v0)) (?v_1 (f4 (f5 f6 ?v2) ?v3))) (= (f4 (f5 f6 (f4 ?v_0 ?v1)) ?v_1) (f4 ?v_0 (f4 (f5 f6 ?v1) ?v_1))))))
(assert (forall ((?v0 S6) (?v1 S6) (?v2 S6)) (let ((?v_0 (f28 f31 ?v0))) (= (f27 (f28 f31 (f27 ?v_0 ?v1)) ?v2) (f27 (f28 f31 (f27 ?v_0 ?v2)) ?v1)))))
(assert (forall ((?v0 S2) (?v1 S2) (?v2 S2)) (let ((?v_0 (f5 f6 ?v0))) (= (f4 (f5 f6 (f4 ?v_0 ?v1)) ?v2) (f4 (f5 f6 (f4 ?v_0 ?v2)) ?v1)))))
(assert (forall ((?v0 S6) (?v1 S6) (?v2 S6)) (let ((?v_0 (f28 f31 ?v0))) (= (f27 (f28 f31 (f27 ?v_0 ?v1)) ?v2) (f27 ?v_0 (f27 (f28 f31 ?v1) ?v2))))))
(assert (forall ((?v0 S2) (?v1 S2) (?v2 S2)) (let ((?v_0 (f5 f6 ?v0))) (= (f4 (f5 f6 (f4 ?v_0 ?v1)) ?v2) (f4 ?v_0 (f4 (f5 f6 ?v1) ?v2))))))
(assert (forall ((?v0 S6) (?v1 S6) (?v2 S6)) (let ((?v_0 (f28 f31 ?v0))) (= (f27 ?v_0 (f27 (f28 f31 ?v1) ?v2)) (f27 (f28 f31 (f27 ?v_0 ?v1)) ?v2)))))
(assert (forall ((?v0 S2) (?v1 S2) (?v2 S2)) (let ((?v_0 (f5 f6 ?v0))) (= (f4 ?v_0 (f4 (f5 f6 ?v1) ?v2)) (f4 (f5 f6 (f4 ?v_0 ?v1)) ?v2)))))
(assert (forall ((?v0 S6) (?v1 S6) (?v2 S6)) (let ((?v_1 (f28 f31 ?v0)) (?v_0 (f28 f31 ?v1))) (= (f27 ?v_1 (f27 ?v_0 ?v2)) (f27 ?v_0 (f27 ?v_1 ?v2))))))
(assert (forall ((?v0 S2) (?v1 S2) (?v2 S2)) (let ((?v_1 (f5 f6 ?v0)) (?v_0 (f5 f6 ?v1))) (= (f4 ?v_1 (f4 ?v_0 ?v2)) (f4 ?v_0 (f4 ?v_1 ?v2))))))
(assert (forall ((?v0 S6) (?v1 S6)) (= (f27 (f28 f31 ?v0) ?v1) (f27 (f28 f31 ?v1) ?v0))))
(assert (forall ((?v0 S2) (?v1 S2)) (= (f4 (f5 f6 ?v0) ?v1) (f4 (f5 f6 ?v1) ?v0))))
(assert (forall ((?v0 S6) (?v1 S6) (?v2 S6) (?v3 S6)) (let ((?v_0 (f28 f29 ?v0))) (= (f27 (f28 f29 (f27 ?v_0 ?v1)) (f27 (f28 f29 ?v2) ?v3)) (f27 (f28 f29 (f27 ?v_0 ?v2)) (f27 (f28 f29 ?v1) ?v3))))))
(assert (forall ((?v0 S2) (?v1 S2) (?v2 S2) (?v3 S2)) (let ((?v_0 (f5 f7 ?v0))) (= (f4 (f5 f7 (f4 ?v_0 ?v1)) (f4 (f5 f7 ?v2) ?v3)) (f4 (f5 f7 (f4 ?v_0 ?v2)) (f4 (f5 f7 ?v1) ?v3))))))
(assert (forall ((?v0 S6) (?v1 S6) (?v2 S6)) (let ((?v_0 (f28 f29 ?v0))) (= (f27 (f28 f29 (f27 ?v_0 ?v1)) ?v2) (f27 (f28 f29 (f27 ?v_0 ?v2)) ?v1)))))
(assert (forall ((?v0 S2) (?v1 S2) (?v2 S2)) (let ((?v_0 (f5 f7 ?v0))) (= (f4 (f5 f7 (f4 ?v_0 ?v1)) ?v2) (f4 (f5 f7 (f4 ?v_0 ?v2)) ?v1)))))
(assert (forall ((?v0 S6) (?v1 S6) (?v2 S6)) (let ((?v_0 (f28 f29 ?v0))) (= (f27 (f28 f29 (f27 ?v_0 ?v1)) ?v2) (f27 ?v_0 (f27 (f28 f29 ?v1) ?v2))))))
(assert (forall ((?v0 S2) (?v1 S2) (?v2 S2)) (let ((?v_0 (f5 f7 ?v0))) (= (f4 (f5 f7 (f4 ?v_0 ?v1)) ?v2) (f4 ?v_0 (f4 (f5 f7 ?v1) ?v2))))))
(assert (forall ((?v0 S6) (?v1 S6) (?v2 S6)) (let ((?v_0 (f28 f29 ?v0))) (= (f27 ?v_0 (f27 (f28 f29 ?v1) ?v2)) (f27 (f28 f29 (f27 ?v_0 ?v1)) ?v2)))))
(assert (forall ((?v0 S2) (?v1 S2) (?v2 S2)) (let ((?v_0 (f5 f7 ?v0))) (= (f4 ?v_0 (f4 (f5 f7 ?v1) ?v2)) (f4 (f5 f7 (f4 ?v_0 ?v1)) ?v2)))))
(assert (forall ((?v0 S6) (?v1 S6) (?v2 S6)) (let ((?v_1 (f28 f29 ?v0)) (?v_0 (f28 f29 ?v1))) (= (f27 ?v_1 (f27 ?v_0 ?v2)) (f27 ?v_0 (f27 ?v_1 ?v2))))))
(assert (forall ((?v0 S2) (?v1 S2) (?v2 S2)) (let ((?v_1 (f5 f7 ?v0)) (?v_0 (f5 f7 ?v1))) (= (f4 ?v_1 (f4 ?v_0 ?v2)) (f4 ?v_0 (f4 ?v_1 ?v2))))))
(assert (forall ((?v0 S6) (?v1 S6)) (= (f27 (f28 f29 ?v0) ?v1) (f27 (f28 f29 ?v1) ?v0))))
(assert (forall ((?v0 S2) (?v1 S2)) (= (f4 (f5 f7 ?v0) ?v1) (f4 (f5 f7 ?v1) ?v0))))
(assert (forall ((?v0 S6)) (= (f27 (f28 f34 ?v0) f30) ?v0)))
(assert (forall ((?v0 S2)) (= (f15 (f16 f17 ?v0) f30) ?v0)))
(assert (forall ((?v0 S2) (?v1 S2)) (=> (= (f32 f35 ?v0) f1) (= (= (f4 (f5 f6 ?v0) ?v1) f13) (and (= ?v0 f13) (= ?v1 f13))))))
(assert (forall ((?v0 S2)) (= (= (f32 (f4 (f5 f7 (f4 (f5 f7 f13) ?v0)) ?v0) f35) f1) (= (f32 ?v0 f35) f1))))
(assert (forall ((?v0 S6) (?v1 S6)) (= (= (f27 (f28 f31 ?v0) ?v1) f30) (and (= ?v0 f30) (= ?v1 f30)))))
(assert (forall ((?v0 S2)) (= (= (f32 (f4 f8 ?v0) f35) f1) (= (f32 ?v0 f11) f1))))
(assert (forall ((?v0 S2)) (= (= (f32 f35 (f4 f8 ?v0)) f1) (= (f32 f11 ?v0) f1))))
(assert (forall ((?v0 S2)) (= (= (f15 (f16 f17 ?v0) (f22 f23 (f4 f9 (f4 f10 f11)))) f35) (= ?v0 f35))))
(assert (= (f27 (f28 f34 f40) (f22 f23 (f4 f9 (f4 f10 f11)))) f40))
(assert (= (f15 (f16 f17 f35) (f22 f23 (f4 f9 (f4 f10 f11)))) f35))
(assert (forall ((?v0 S2)) (= (= (f32 f35 (f15 (f16 f17 ?v0) (f22 f23 (f4 f9 (f4 f10 f11))))) f1) (not (= ?v0 f35)))))
(assert (forall ((?v0 S2)) (not (= (f32 (f15 (f16 f17 ?v0) (f22 f23 (f4 f9 (f4 f10 f11)))) f35) f1))))
(assert (forall ((?v0 S2) (?v1 S2)) (let ((?v_0 (f22 f23 (f4 f9 (f4 f10 f11))))) (= (= (f4 (f5 f7 (f15 (f16 f17 ?v0) ?v_0)) (f15 (f16 f17 ?v1) ?v_0)) f35) (and (= ?v0 f35) (= ?v1 f35))))))
(assert (forall ((?v0 S6) (?v1 S6) (?v2 S6) (?v3 S6)) (let ((?v_0 (f28 f31 ?v0)) (?v_1 (f28 f31 ?v2))) (= (= (f27 (f28 f29 (f27 ?v_0 ?v1)) (f27 ?v_1 ?v3)) (f27 (f28 f29 (f27 ?v_0 ?v3)) (f27 ?v_1 ?v1))) (or (= ?v0 ?v2) (= ?v1 ?v3))))))
(assert (forall ((?v0 S2) (?v1 S2) (?v2 S2) (?v3 S2)) (let ((?v_0 (f5 f6 ?v0)) (?v_1 (f5 f6 ?v2))) (= (= (f4 (f5 f7 (f4 ?v_0 ?v1)) (f4 ?v_1 ?v3)) (f4 (f5 f7 (f4 ?v_0 ?v3)) (f4 ?v_1 ?v1))) (or (= ?v0 ?v2) (= ?v1 ?v3))))))
(assert (forall ((?v0 S6) (?v1 S6) (?v2 S6)) (= (f27 (f28 f29 (f27 (f28 f31 ?v0) ?v1)) (f27 (f28 f31 ?v2) ?v1)) (f27 (f28 f31 (f27 (f28 f29 ?v0) ?v2)) ?v1))))
(assert (forall ((?v0 S2) (?v1 S2) (?v2 S2)) (= (f4 (f5 f7 (f4 (f5 f6 ?v0) ?v1)) (f4 (f5 f6 ?v2) ?v1)) (f4 (f5 f6 (f4 (f5 f7 ?v0) ?v2)) ?v1))))
(assert (forall ((?v0 S6) (?v1 S6) (?v2 S6)) (= (f27 (f28 f31 (f27 (f28 f29 ?v0) ?v1)) ?v2) (f27 (f28 f29 (f27 (f28 f31 ?v0) ?v2)) (f27 (f28 f31 ?v1) ?v2)))))
(assert (forall ((?v0 S2) (?v1 S2) (?v2 S2)) (= (f4 (f5 f6 (f4 (f5 f7 ?v0) ?v1)) ?v2) (f4 (f5 f7 (f4 (f5 f6 ?v0) ?v2)) (f4 (f5 f6 ?v1) ?v2)))))
(assert (forall ((?v0 S6) (?v1 S6) (?v2 S6) (?v3 S6)) (let ((?v_0 (f28 f31 ?v0)) (?v_1 (f28 f31 ?v1))) (= (and (not (= ?v0 ?v1)) (not (= ?v2 ?v3))) (not (= (f27 (f28 f29 (f27 ?v_0 ?v2)) (f27 ?v_1 ?v3)) (f27 (f28 f29 (f27 ?v_0 ?v3)) (f27 ?v_1 ?v2))))))))
(assert (forall ((?v0 S2) (?v1 S2) (?v2 S2) (?v3 S2)) (let ((?v_0 (f5 f6 ?v0)) (?v_1 (f5 f6 ?v1))) (= (and (not (= ?v0 ?v1)) (not (= ?v2 ?v3))) (not (= (f4 (f5 f7 (f4 ?v_0 ?v2)) (f4 ?v_1 ?v3)) (f4 (f5 f7 (f4 ?v_0 ?v3)) (f4 ?v_1 ?v2))))))))
(assert (forall ((?v0 S6) (?v1 S6) (?v2 S6)) (let ((?v_0 (f28 f31 ?v0))) (= (f27 ?v_0 (f27 (f28 f29 ?v1) ?v2)) (f27 (f28 f29 (f27 ?v_0 ?v1)) (f27 ?v_0 ?v2))))))
(assert (forall ((?v0 S2) (?v1 S2) (?v2 S2)) (let ((?v_0 (f5 f6 ?v0))) (= (f4 ?v_0 (f4 (f5 f7 ?v1) ?v2)) (f4 (f5 f7 (f4 ?v_0 ?v1)) (f4 ?v_0 ?v2))))))
(assert (forall ((?v0 S6)) (= (f27 (f28 f31 ?v0) f30) ?v0)))
(assert (forall ((?v0 S2)) (= (f4 (f5 f6 ?v0) f13) ?v0)))
(assert (forall ((?v0 S6)) (= (f27 (f28 f31 f30) ?v0) ?v0)))
(assert (forall ((?v0 S2)) (= (f4 (f5 f6 f13) ?v0) ?v0)))
(assert (forall ((?v0 S6) (?v1 S6) (?v2 S6)) (= (f27 (f28 f34 (f27 (f28 f31 ?v0) ?v1)) ?v2) (f27 (f28 f31 (f27 (f28 f34 ?v0) ?v2)) (f27 (f28 f34 ?v1) ?v2)))))
(assert (forall ((?v0 S2) (?v1 S2) (?v2 S6)) (= (f15 (f16 f17 (f4 (f5 f6 ?v0) ?v1)) ?v2) (f4 (f5 f6 (f15 (f16 f17 ?v0) ?v2)) (f15 (f16 f17 ?v1) ?v2)))))
(assert (forall ((?v0 S6) (?v1 S6) (?v2 S6)) (let ((?v_0 (f28 f34 ?v0))) (= (f27 (f28 f34 (f27 ?v_0 ?v1)) ?v2) (f27 ?v_0 (f27 (f28 f31 ?v1) ?v2))))))
(assert (forall ((?v0 S2) (?v1 S6) (?v2 S6)) (let ((?v_0 (f16 f17 ?v0))) (= (f15 (f16 f17 (f15 ?v_0 ?v1)) ?v2) (f15 ?v_0 (f27 (f28 f31 ?v1) ?v2))))))
(assert (forall ((?v0 S2) (?v1 S2)) (let ((?v_0 (f22 f23 (f4 f9 (f4 f10 f11))))) (= (= (f32 f35 (f4 (f5 f7 (f15 (f16 f17 ?v0) ?v_0)) (f15 (f16 f17 ?v1) ?v_0))) f1) (or (not (= ?v0 f35)) (not (= ?v1 f35)))))))
(assert (forall ((?v0 S2) (?v1 S2)) (let ((?v_0 (f22 f23 (f4 f9 (f4 f10 f11))))) (not (= (f32 (f4 (f5 f7 (f15 (f16 f17 ?v0) ?v_0)) (f15 (f16 f17 ?v1) ?v_0)) f35) f1)))))
(assert (forall ((?v0 S6)) (= (f15 (f16 f17 (f4 f8 f37)) (f27 (f28 f31 (f22 f23 (f4 f9 (f4 f10 f11)))) ?v0)) f13)))
(assert (forall ((?v0 S6) (?v1 S6)) (= (f27 (f28 f29 (f27 (f28 f31 ?v0) ?v1)) ?v1) (f27 (f28 f31 (f27 (f28 f29 ?v0) f30)) ?v1))))
(assert (forall ((?v0 S2) (?v1 S2)) (= (f4 (f5 f7 (f4 (f5 f6 ?v0) ?v1)) ?v1) (f4 (f5 f6 (f4 (f5 f7 ?v0) f13)) ?v1))))
(assert (forall ((?v0 S6) (?v1 S6)) (= (f27 (f28 f29 ?v0) (f27 (f28 f31 ?v1) ?v0)) (f27 (f28 f31 (f27 (f28 f29 ?v1) f30)) ?v0))))
(assert (forall ((?v0 S2) (?v1 S2)) (= (f4 (f5 f7 ?v0) (f4 (f5 f6 ?v1) ?v0)) (f4 (f5 f6 (f4 (f5 f7 ?v1) f13)) ?v0))))
(assert (forall ((?v0 S6)) (= (f27 (f28 f29 ?v0) ?v0) (f27 (f28 f31 (f27 (f28 f29 f30) f30)) ?v0))))
(assert (forall ((?v0 S2)) (= (f4 (f5 f7 ?v0) ?v0) (f4 (f5 f6 (f4 (f5 f7 f13) f13)) ?v0))))
(assert (forall ((?v0 S6) (?v1 S6) (?v2 S6)) (let ((?v_0 (f28 f34 ?v0))) (= (f27 (f28 f31 (f27 ?v_0 ?v1)) (f27 ?v_0 ?v2)) (f27 ?v_0 (f27 (f28 f29 ?v1) ?v2))))))
(assert (forall ((?v0 S2) (?v1 S6) (?v2 S6)) (let ((?v_0 (f16 f17 ?v0))) (= (f4 (f5 f6 (f15 ?v_0 ?v1)) (f15 ?v_0 ?v2)) (f15 ?v_0 (f27 (f28 f29 ?v1) ?v2))))))
(assert (forall ((?v0 S6)) (= (f27 (f28 f31 ?v0) ?v0) (f27 (f28 f34 ?v0) (f22 f23 (f4 f9 (f4 f10 f11)))))))
(assert (forall ((?v0 S2)) (= (f4 (f5 f6 ?v0) ?v0) (f15 (f16 f17 ?v0) (f22 f23 (f4 f9 (f4 f10 f11)))))))
(assert (= (f42 (f4 (f5 f7 (f4 (f5 f6 (f4 f8 (f4 f9 (f4 f9 (f4 f10 f11))))) f12)) f13) (f4 f8 f37)) f1))
(assert (let ((?v_0 (f4 f9 (f4 f10 f11)))) (= (f43 (f15 (f16 f17 f33) (f22 f23 ?v_0)) (f4 f8 f37) (f4 (f5 f7 (f4 (f5 f6 (f4 f8 (f4 f9 ?v_0))) f12)) f13)) f1)))
(assert (let ((?v_0 (f4 f9 (f4 f10 f11)))) (= (f43 (f15 (f16 f17 f44) (f22 f23 ?v_0)) (f4 f8 f37) (f4 (f5 f7 (f4 (f5 f6 (f4 f8 (f4 f9 ?v_0))) f12)) f13)) f1)))
(assert (let ((?v_1 (f4 (f5 f7 (f4 (f5 f6 (f4 f8 (f4 f9 (f4 f9 (f4 f10 f11))))) f12)) f13)) (?v_0 (f4 f8 f37))) (=> (not (= (f42 ?v_1 ?v_0) f1)) (not (= (f4 (f5 f39 ?v_0) ?v_1) f13)))))
(assert (= (f41 f40 f45) f1))
(assert (= (f41 f40 f46) f1))
(assert (let ((?v_1 (f4 f9 (f4 f10 f11)))) (let ((?v_0 (f22 f23 ?v_1))) (= (f43 (f15 (f16 f17 f33) ?v_0) (f15 (f16 f17 f44) ?v_0) (f4 (f5 f7 (f4 (f5 f6 (f4 f8 (f4 f9 ?v_1))) f12)) f13)) f1))))
(assert (=> (forall ((?v0 S2)) (let ((?v_0 (f4 f9 (f4 f10 f11)))) (=> (= (f43 (f15 (f16 f17 ?v0) (f22 f23 ?v_0)) (f4 f8 f37) (f4 (f5 f7 (f4 (f5 f6 (f4 f8 (f4 f9 ?v_0))) f12)) f13)) f1) false))) false))
(assert (not (= (f3 (f4 (f5 f6 (f4 (f5 f7 (f4 (f5 f6 (f4 f8 (f4 f9 (f4 f9 (f4 f10 f11))))) f12)) f13)) (f4 (f5 f7 f13) (f15 f47 f40)))) f1)))
(assert (let ((?v_0 (f4 (f5 f7 (f4 (f5 f6 (f4 f8 (f4 f9 (f4 f9 (f4 f10 f11))))) f12)) f13))) (and (= (f48 f35 f33) f1) (and (= (f32 f33 ?v_0) f1) (= (f43 f44 f33 ?v_0) f1)))))
(assert (forall ((?v0 S6) (?v1 S6)) (= (= (f27 (f28 f34 ?v0) ?v1) f40) (and (not (= ?v1 f40)) (= ?v0 f40)))))
(assert (forall ((?v0 S6)) (= (f27 (f28 f34 ?v0) f40) f30)))
(assert (forall ((?v0 S2)) (= (f15 (f16 f17 ?v0) f40) f13)))
(assert (= f40 (f22 f23 f11)))
(assert (= (f22 f23 f11) f40))
(assert (forall ((?v0 S6) (?v1 S6)) (= (= (f27 (f28 f34 ?v0) ?v1) f30) (or (= ?v0 f30) (= ?v1 f40)))))
(assert (forall ((?v0 S2)) (= (= (f41 f40 (f22 f23 ?v0)) f1) (= (f32 f11 ?v0) f1))))
(assert (forall ((?v0 S6) (?v1 S6)) (= (f27 (f28 f31 ?v0) ?v1) (ite (= ?v0 f40) f40 (f27 (f28 f29 ?v1) (f27 (f28 f31 (f27 (f28 f38 ?v0) f30)) ?v1))))))
(assert (forall ((?v0 S6) (?v1 S6)) (let ((?v_0 (f28 f34 ?v0))) (= (f27 ?v_0 ?v1) (ite (= ?v1 f40) f30 (f27 (f28 f31 ?v0) (f27 ?v_0 (f27 (f28 f38 ?v1) f30))))))))
(assert (forall ((?v0 S2) (?v1 S2)) (= (f27 (f28 f31 (f22 f23 ?v0)) (f22 f23 ?v1)) (ite (= (f32 ?v0 f11) f1) f40 (f22 f23 (f4 (f5 f6 ?v0) ?v1))))))
(assert (forall ((?v0 S2) (?v1 S2) (?v2 S6)) (= (f27 (f28 f31 (f22 f23 ?v0)) (f27 (f28 f31 (f22 f23 ?v1)) ?v2)) (ite (= (f32 ?v0 f11) f1) f40 (f27 (f28 f31 (f22 f23 (f4 (f5 f6 ?v0) ?v1))) ?v2)))))
(assert (forall ((?v0 S2)) (let ((?v_0 (f4 (f5 f7 (f4 (f5 f6 (f4 f8 (f4 f9 (f4 f9 (f4 f10 f11))))) ?v0)) f13))) (=> (= (f25 ?v_0) f1) (= (f4 (f5 f39 (f4 f8 f37)) ?v_0) f13)))))
(assert (forall ((?v0 S2) (?v1 S6) (?v2 S6)) (let ((?v_0 (f16 f17 (f4 f8 f37)))) (let ((?v_1 (f15 ?v_0 ?v1)) (?v_2 (f15 ?v_0 ?v2))) (=> (= (f32 (f4 f8 (f4 f9 (f4 f10 f11))) ?v0) f1) (=> (= (f43 ?v_1 ?v_2 ?v0) f1) (= ?v_1 ?v_2)))))))
(assert (forall ((?v0 S2) (?v1 S2) (?v2 S2)) (=> (not (= (f43 ?v0 f35 ?v1) f1)) (=> (= (f43 (f15 (f16 f17 ?v2) (f22 f23 (f4 f9 (f4 f10 f11)))) ?v0 ?v1) f1) (not (= (f36 ?v1 ?v2) f1))))))
(check-sat)
(exit)
